
Gurobi 8.1.1 (mac64, Python) logging started Sun Sep 22 20:26:14 2019

Academic license - for non-commercial use only
Optimize a model with 3 rows, 6 columns and 12 nonzeros
Coefficient statistics:
  Matrix range     [2e-01, 4e+00]
  Objective range  [1e-01, 1e+01]
  Bounds range     [0e+00, 0e+00]
  RHS range        [2e+03, 2e+03]
Presolve removed 3 rows and 6 columns
Presolve time: 0.00s
Presolve: All rows and columns removed
Iteration    Objective       Primal Inf.    Dual Inf.      Time
       0    2.9500000e+04   0.000000e+00   0.000000e+00      0s

Solved in 0 iterations and 0.00 seconds
Optimal objective  2.950000000e+04
